min: 23.7*X_0_0 + 17.5*X_0_1 + 19.0*X_0_2 + 18.2*X_0_3 + 21.9*X_0_4 + 9.5*X_0_5 + 32*X_0_6 + 25.0*X_0_7 + 23.7*X_0_8 + 15.8*X_0_9 + 19.6*X_1_0 + 24.2*X_1_1 + 23.7*X_1_2 + 21.4*X_1_3 + 19.9*X_1_4 + 18.7*X_1_5 + 21.2*X_1_6 + 19.7*X_1_7 + 16.8*X_1_8 + 24.5*X_1_9 + 17.6*X_2_0 + 18.8*X_2_1 + 19.6*X_2_2 + 27.9*X_2_3 + 18.3*X_2_4 + 20.4*X_2_5 + 18.5*X_2_6 + 16.3*X_2_7 + 22.0*X_2_8 + 20.4*X_2_9 + 29.2*X_3_0 + 11.2*X_3_1 + 14.7*X_3_2 + 27.4*X_3_3 + 22.1*X_3_4 + 18.8*X_3_5 + 19.3*X_3_6 + 17.0*X_3_7 + 25.6*X_3_8 + 16.1*X_3_9 + 21.9*X_4_0 + 25.8*X_4_1 + 17.0*X_4_2 + 22.0*X_4_3 + 26.6*X_4_4 + 21.6*X_4_5 + 21.7*X_4_6 + 19.5*X_4_7 + 22.8*X_4_8 + 20.3*X_4_9 + 26.3*X_5_0 + 27.0*X_5_1 + 15.1*X_5_2 + 27.3*X_5_3 + 18.8*X_5_4 + 20.2*X_5_5 + 14.4*X_5_6 + 21.7*X_5_7 + 21.5*X_5_8 + 19.0*X_5_9 + 16.5*X_6_0 + 25.2*X_6_1 + 23.2*X_6_2 + 27.1*X_6_3 + 16.6*X_6_4 + 15.5*X_6_5 + 21.4*X_6_6 + 14.1*X_6_7 + 14.1*X_6_8 + 22.0*X_6_9 + 22.2*X_7_0 + 27.0*X_7_1 + 25.9*X_7_2 + 26.0*X_7_3 + 28.0*X_7_4 + 21.6*X_7_5 + 21.2*X_7_6 + 18.7*X_7_7 + 15.6*X_7_8 + 24.6*X_7_9 + 19.0*X_8_0 + 23.8*X_8_1 + 19.0*X_8_2 + 16.4*X_8_3 + 16.9*X_8_4 + 14.4*X_8_5 + 21.1*X_8_6 + 20.6*X_8_7 + 18.0*X_8_8 + 20.7*X_8_9 + 19.3*X_9_0 + 21.1*X_9_1 + 21.8*X_9_2 + 27.2*X_9_3 + 17.5*X_9_4 + 23.9*X_9_5 + 17.0*X_9_6 + 18.5*X_9_7 + 22.7*X_9_8 + 14.7*X_9_9;

26.78 * X_0_0 + 35.0 * X_0_1 + 24.89 * X_0_2 + 29.85 * X_0_3 + 24.31 * X_0_4 + 11.59 * X_0_5 + 32 * X_0_6 + 52.75 * X_0_7 + 30.34 * X_0_8 + 15.8 * X_0_9<= 90.78;
34.69 * X_1_0 + 31.7 * X_1_1 + 34.84 * X_1_2 + 28.46 * X_1_3 + 29.45 * X_1_4 + 31.04 * X_1_5 + 21.41 * X_1_6 + 49.05 * X_1_7 + 16.8 * X_1_8 + 57.58 * X_1_9<= 90.66;
33.79 * X_2_0 + 18.8 * X_2_1 + 19.6 * X_2_2 + 41.01 * X_2_3 + 25.07 * X_2_4 + 35.5 * X_2_5 + 28.49 * X_2_6 + 30.81 * X_2_7 + 24.42 * X_2_8 + 41.41 * X_2_9<= 94.3;
29.2 * X_3_0 + 11.65 * X_3_1 + 36.6 * X_3_2 + 39.46 * X_3_3 + 35.36 * X_3_4 + 33.46 * X_3_5 + 29.53 * X_3_6 + 18.19 * X_3_7 + 52.48 * X_3_8 + 29.3 * X_3_9<= 92.86;
21.9 * X_4_0 + 52.89 * X_4_1 + 36.72 * X_4_2 + 31.46 * X_4_3 + 54.8 * X_4_4 + 37.8 * X_4_5 + 34.07 * X_4_6 + 20.48 * X_4_7 + 30.78 * X_4_8 + 34.1 * X_4_9<= 91.46;
38.92 * X_5_0 + 29.16 * X_5_1 + 26.12 * X_5_2 + 27.3 * X_5_3 + 18.8 * X_5_4 + 28.68 * X_5_5 + 28.08 * X_5_6 + 21.7 * X_5_7 + 35.48 * X_5_8 + 47.88 * X_5_9<= 89.42;
20.13 * X_6_0 + 39.82 * X_6_1 + 23.2 * X_6_2 + 42.55 * X_6_3 + 24.9 * X_6_4 + 21.54 * X_6_5 + 32.31 * X_6_6 + 14.1 * X_6_7 + 23.26 * X_6_8 + 26.84 * X_6_9<= 91.0;
61.94 * X_7_0 + 56.7 * X_7_1 + 51.8 * X_7_2 + 41.6 * X_7_3 + 46.48 * X_7_4 + 45.79 * X_7_5 + 21.2 * X_7_6 + 29.36 * X_7_7 + 22.93 * X_7_8 + 29.03 * X_7_9<= 82.25;
31.73 * X_8_0 + 23.8 * X_8_1 + 31.73 * X_8_2 + 16.4 * X_8_3 + 25.86 * X_8_4 + 28.66 * X_8_5 + 33.97 * X_8_6 + 20.6 * X_8_7 + 33.66 * X_8_8 + 39.33 * X_8_9<= 87.88;
23.74 * X_9_0 + 43.68 * X_9_1 + 24.42 * X_9_2 + 66.91 * X_9_3 + 23.28 * X_9_4 + 25.57 * X_9_5 + 24.14 * X_9_6 + 37.56 * X_9_7 + 29.74 * X_9_8 + 15.14 * X_9_9<= 93.32;
X_0_0 + X_0_1 + X_0_2 + X_0_3 + X_0_4 + X_0_5 + X_0_6 + X_0_7 + X_0_8 + X_0_9 <= 5;
X_1_0 + X_1_1 + X_1_2 + X_1_3 + X_1_4 + X_1_5 + X_1_6 + X_1_7 + X_1_8 + X_1_9 <= 5;
X_2_0 + X_2_1 + X_2_2 + X_2_3 + X_2_4 + X_2_5 + X_2_6 + X_2_7 + X_2_8 + X_2_9 <= 5;
X_3_0 + X_3_1 + X_3_2 + X_3_3 + X_3_4 + X_3_5 + X_3_6 + X_3_7 + X_3_8 + X_3_9 <= 5;
X_4_0 + X_4_1 + X_4_2 + X_4_3 + X_4_4 + X_4_5 + X_4_6 + X_4_7 + X_4_8 + X_4_9 <= 5;
X_5_0 + X_5_1 + X_5_2 + X_5_3 + X_5_4 + X_5_5 + X_5_6 + X_5_7 + X_5_8 + X_5_9 <= 5;
X_6_0 + X_6_1 + X_6_2 + X_6_3 + X_6_4 + X_6_5 + X_6_6 + X_6_7 + X_6_8 + X_6_9 <= 5;
X_7_0 + X_7_1 + X_7_2 + X_7_3 + X_7_4 + X_7_5 + X_7_6 + X_7_7 + X_7_8 + X_7_9 <= 5;
X_8_0 + X_8_1 + X_8_2 + X_8_3 + X_8_4 + X_8_5 + X_8_6 + X_8_7 + X_8_8 + X_8_9 <= 5;
X_9_0 + X_9_1 + X_9_2 + X_9_3 + X_9_4 + X_9_5 + X_9_6 + X_9_7 + X_9_8 + X_9_9 <= 5;
23.7 * X_0_0+17.5 * X_0_1+19.0 * X_0_2+18.2 * X_0_3+21.9 * X_0_4+9.5 * X_0_5+32 * X_0_6+25.0 * X_0_7+23.7 * X_0_8+15.8 * X_0_9 >= 67.51;
19.6 * X_1_0+24.2 * X_1_1+23.7 * X_1_2+21.4 * X_1_3+19.9 * X_1_4+18.7 * X_1_5+21.2 * X_1_6+19.7 * X_1_7+16.8 * X_1_8+24.5 * X_1_9 >= 63.72;
17.6 * X_2_0+18.8 * X_2_1+19.6 * X_2_2+27.9 * X_2_3+18.3 * X_2_4+20.4 * X_2_5+18.5 * X_2_6+16.3 * X_2_7+22.0 * X_2_8+20.4 * X_2_9 >= 68.7;
29.2 * X_3_0+11.2 * X_3_1+14.7 * X_3_2+27.4 * X_3_3+22.1 * X_3_4+18.8 * X_3_5+19.3 * X_3_6+17.0 * X_3_7+25.6 * X_3_8+16.1 * X_3_9 >= 75.24;
21.9 * X_4_0+25.8 * X_4_1+17.0 * X_4_2+22.0 * X_4_3+26.6 * X_4_4+21.6 * X_4_5+21.7 * X_4_6+19.5 * X_4_7+22.8 * X_4_8+20.3 * X_4_9 >= 73.97;
26.3 * X_5_0+27.0 * X_5_1+15.1 * X_5_2+27.3 * X_5_3+18.8 * X_5_4+20.2 * X_5_5+14.4 * X_5_6+21.7 * X_5_7+21.5 * X_5_8+19.0 * X_5_9 >= 73.5;
16.5 * X_6_0+25.2 * X_6_1+23.2 * X_6_2+27.1 * X_6_3+16.6 * X_6_4+15.5 * X_6_5+21.4 * X_6_6+14.1 * X_6_7+14.1 * X_6_8+22.0 * X_6_9 >= 70.36;
22.2 * X_7_0+27.0 * X_7_1+25.9 * X_7_2+26.0 * X_7_3+28.0 * X_7_4+21.6 * X_7_5+21.2 * X_7_6+18.7 * X_7_7+15.6 * X_7_8+24.6 * X_7_9 >= 64.07;
19.0 * X_8_0+23.8 * X_8_1+19.0 * X_8_2+16.4 * X_8_3+16.9 * X_8_4+14.4 * X_8_5+21.1 * X_8_6+20.6 * X_8_7+18.0 * X_8_8+20.7 * X_8_9 >= 66.79;
19.3 * X_9_0+21.1 * X_9_1+21.8 * X_9_2+27.2 * X_9_3+17.5 * X_9_4+23.9 * X_9_5+17.0 * X_9_6+18.5 * X_9_7+22.7 * X_9_8+14.7 * X_9_9 >= 72.51;
X_0_0 + X_1_0 + X_2_0 + X_3_0 + X_4_0 + X_5_0 + X_6_0 + X_7_0 + X_8_0 + X_9_0 <= 5;
X_0_1 + X_1_1 + X_2_1 + X_3_1 + X_4_1 + X_5_1 + X_6_1 + X_7_1 + X_8_1 + X_9_1 <= 5;
X_0_2 + X_1_2 + X_2_2 + X_3_2 + X_4_2 + X_5_2 + X_6_2 + X_7_2 + X_8_2 + X_9_2 <= 5;
X_0_3 + X_1_3 + X_2_3 + X_3_3 + X_4_3 + X_5_3 + X_6_3 + X_7_3 + X_8_3 + X_9_3 <= 5;
X_0_4 + X_1_4 + X_2_4 + X_3_4 + X_4_4 + X_5_4 + X_6_4 + X_7_4 + X_8_4 + X_9_4 <= 5;
X_0_5 + X_1_5 + X_2_5 + X_3_5 + X_4_5 + X_5_5 + X_6_5 + X_7_5 + X_8_5 + X_9_5 <= 5;
X_0_6 + X_1_6 + X_2_6 + X_3_6 + X_4_6 + X_5_6 + X_6_6 + X_7_6 + X_8_6 + X_9_6 <= 5;
X_0_7 + X_1_7 + X_2_7 + X_3_7 + X_4_7 + X_5_7 + X_6_7 + X_7_7 + X_8_7 + X_9_7 <= 5;
X_0_8 + X_1_8 + X_2_8 + X_3_8 + X_4_8 + X_5_8 + X_6_8 + X_7_8 + X_8_8 + X_9_8 <= 5;
X_0_9 + X_1_9 + X_2_9 + X_3_9 + X_4_9 + X_5_9 + X_6_9 + X_7_9 + X_8_9 + X_9_9 <= 5;
23.7* X_0_0 +19.6* X_1_0 +17.6* X_2_0 +29.2* X_3_0 +21.9* X_4_0 +26.3* X_5_0 +16.5* X_6_0 +22.2* X_7_0 +19.0* X_8_0 +19.3* X_9_0 <= 80;
17.5* X_0_1 +24.2* X_1_1 +18.8* X_2_1 +11.2* X_3_1 +25.8* X_4_1 +27.0* X_5_1 +25.2* X_6_1 +27.0* X_7_1 +23.8* X_8_1 +21.1* X_9_1 <= 80;
19.0* X_0_2 +23.7* X_1_2 +19.6* X_2_2 +14.7* X_3_2 +17.0* X_4_2 +15.1* X_5_2 +23.2* X_6_2 +25.9* X_7_2 +19.0* X_8_2 +21.8* X_9_2 <= 80;
18.2* X_0_3 +21.4* X_1_3 +27.9* X_2_3 +27.4* X_3_3 +22.0* X_4_3 +27.3* X_5_3 +27.1* X_6_3 +26.0* X_7_3 +16.4* X_8_3 +27.2* X_9_3 <= 80;
21.9* X_0_4 +19.9* X_1_4 +18.3* X_2_4 +22.1* X_3_4 +26.6* X_4_4 +18.8* X_5_4 +16.6* X_6_4 +28.0* X_7_4 +16.9* X_8_4 +17.5* X_9_4 <= 80;
9.5* X_0_5 +18.7* X_1_5 +20.4* X_2_5 +18.8* X_3_5 +21.6* X_4_5 +20.2* X_5_5 +15.5* X_6_5 +21.6* X_7_5 +14.4* X_8_5 +23.9* X_9_5 <= 80;
32* X_0_6 +21.2* X_1_6 +18.5* X_2_6 +19.3* X_3_6 +21.7* X_4_6 +14.4* X_5_6 +21.4* X_6_6 +21.2* X_7_6 +21.1* X_8_6 +17.0* X_9_6 <= 80;
25.0* X_0_7 +19.7* X_1_7 +16.3* X_2_7 +17.0* X_3_7 +19.5* X_4_7 +21.7* X_5_7 +14.1* X_6_7 +18.7* X_7_7 +20.6* X_8_7 +18.5* X_9_7 <= 80;
23.7* X_0_8 +16.8* X_1_8 +22.0* X_2_8 +25.6* X_3_8 +22.8* X_4_8 +21.5* X_5_8 +14.1* X_6_8 +15.6* X_7_8 +18.0* X_8_8 +22.7* X_9_8 <= 80;
15.8* X_0_9 +24.5* X_1_9 +20.4* X_2_9 +16.1* X_3_9 +20.3* X_4_9 +19.0* X_5_9 +22.0* X_6_9 +24.6* X_7_9 +20.7* X_8_9 +14.7* X_9_9 <= 80;
bin X_0_0,X_0_1,X_0_2,X_0_3,X_0_4,X_0_5,X_0_6,X_0_7,X_0_8,X_0_9,X_1_0,X_1_1,X_1_2,X_1_3,X_1_4,X_1_5,X_1_6,X_1_7,X_1_8,X_1_9,X_2_0,X_2_1,X_2_2,X_2_3,X_2_4,X_2_5,X_2_6,X_2_7,X_2_8,X_2_9,X_3_0,X_3_1,X_3_2,X_3_3,X_3_4,X_3_5,X_3_6,X_3_7,X_3_8,X_3_9,X_4_0,X_4_1,X_4_2,X_4_3,X_4_4,X_4_5,X_4_6,X_4_7,X_4_8,X_4_9,X_5_0,X_5_1,X_5_2,X_5_3,X_5_4,X_5_5,X_5_6,X_5_7,X_5_8,X_5_9,X_6_0,X_6_1,X_6_2,X_6_3,X_6_4,X_6_5,X_6_6,X_6_7,X_6_8,X_6_9,X_7_0,X_7_1,X_7_2,X_7_3,X_7_4,X_7_5,X_7_6,X_7_7,X_7_8,X_7_9,X_8_0,X_8_1,X_8_2,X_8_3,X_8_4,X_8_5,X_8_6,X_8_7,X_8_8,X_8_9,X_9_0,X_9_1,X_9_2,X_9_3,X_9_4,X_9_5,X_9_6,X_9_7,X_9_8,X_9_9;
